Rota do caixeiro dada pelo LK = 0 3 8 9 5 6 4 2 1 7 Custo TSP = 2079
Optimize a model with 20263 rows, 12930 columns and 69918 nonzeros
Coefficient statistics:
  Matrix range    [1e+00, 7e+02]
  Objective range [1e+02, 7e+02]
  Bounds range    [1e+00, 1e+05]
  RHS range       [1e+00, 2e+03]
Presolve removed 19942 rows and 12764 columns
Presolve time: 0.07s
Presolved: 321 rows, 166 columns, 874 nonzeros
Variable types: 54 continuous, 112 integer (112 binary)
Found heuristic solution: objective 3094.1666667

Root relaxation: objective 1.806000e+03, 129 iterations, 0.00 seconds

    Nodes    |    Current Node    |     Objective Bounds      |     Work
 Expl Unexpl |  Obj  Depth IntInf | Incumbent    BestBd   Gap | It/Node Time

     0     0 1806.00000    0    1 3094.16667 1806.00000  41.6%     -    0s
H    0     0                    1906.8333333 1806.00000  5.29%     -    0s
     0     0 1806.13605    0   11 1906.83333 1806.13605  5.28%     -    0s
     0     0 1806.13605    0    1 1906.83333 1806.13605  5.28%     -    0s
H    0     0                    1892.6666667 1806.13605  4.57%     -    0s
H    0     0                    1819.0000000 1806.13605  0.71%     -    0s
     0     0 1806.94638    0   11 1819.00000 1806.94638  0.66%     -    0s
     0     0     cutoff    0      1819.00000 1819.00000  0.00%     -    0s

Cutting planes:
  Gomory: 3
  Implied bound: 2
  MIR: 2
  Flow cover: 5

Explored 0 nodes (299 simplex iterations) in 0.12 seconds
Thread count was 4 (of 4 available processors)

Optimal solution found (tolerance 1.00e-04)
Best objective 1.819000000000e+03, best bound 1.819000000000e+03, gap 0.0%
1819
(1,4) (8,1) (3,2) (2,8) (5,3) (4,9) (7,5) (6,7) (10,6) (9,10) Passageiro 4 embarcou em 2 e desembarcou em 8
Passageiro 7 embarcou em 3 e desembarcou em 2
x_01 = 0
x_02 = 0
x_03 = 1
x_04 = 0
x_05 = 0
x_06 = 0
x_07 = 0
x_08 = 0
x_09 = 0
x_10 = 0
x_12 = 0
x_13 = 0
x_14 = 0
x_15 = 0
x_16 = 0
x_17 = 1
x_18 = 0
x_19 = 0
x_20 = 0
x_21 = 1
x_23 = 0
x_24 = 0
x_25 = 0
x_26 = 0
x_27 = 0
x_28 = 0
x_29 = 0
x_30 = 0
x_31 = 0
x_32 = 0
x_34 = 0
x_35 = 0
x_36 = 0
x_37 = 0
x_38 = 1
x_39 = 0
x_40 = 0
x_41 = 0
x_42 = 1
x_43 = 0
x_45 = 0
x_46 = 0
x_47 = 0
x_48 = 0
x_49 = 0
x_50 = 0
x_51 = 0
x_52 = 0
x_53 = 0
x_54 = 0
x_56 = 1
x_57 = 0
x_58 = 0
x_59 = 0
x_60 = 0
x_61 = 0
x_62 = 0
x_63 = 0
x_64 = 1
x_65 = 0
x_67 = 0
x_68 = 0
x_69 = 0
x_70 = 1
x_71 = 0
x_72 = 0
x_73 = 0
x_74 = 0
x_75 = 0
x_76 = 0
x_78 = 0
x_79 = 0
x_80 = 0
x_81 = 0
x_82 = 0
x_83 = 0
x_84 = 0
x_85 = 0
x_86 = 0
x_87 = 0
x_89 = 1
x_90 = 0
x_91 = 0
x_92 = 0
x_93 = 0
x_94 = 0
x_95 = 1
x_96 = 0
x_97 = 0
x_98 = 0
f_00 = 0
f_01 = 0
f_02 = 0
f_03 = 0
f_04 = 0
f_05 = 0
f_06 = 0
f_07 = 0
f_08 = 0
f_09 = 0
f_10 = 0
f_11 = 0
f_12 = 0
f_13 = 0
f_14 = 0
f_15 = 0
f_16 = 0
f_17 = 0
f_18 = 0
f_19 = 0
f_20 = 0
f_21 = 0
f_22 = 0
f_23 = -0
f_24 = 0
f_25 = 0
f_26 = 0
f_27 = 0
f_28 = 0
f_29 = 0
f_30 = 0
f_31 = 0
f_32 = 0
f_33 = 0
f_34 = 0
f_35 = 0
f_36 = 0
f_37 = 0
f_38 = 0
f_39 = 0
f_40 = 0
f_41 = 0
f_42 = 0
f_43 = 0
f_44 = 0
f_45 = 0
f_46 = 0
f_47 = 1
f_48 = 0
f_49 = 0
f_50 = 0
f_51 = 0
f_52 = 0
f_53 = 0
f_54 = 0
f_55 = 0
f_56 = 0
f_57 = 0
f_58 = 0
f_59 = 0
f_60 = 0
f_61 = 0
f_62 = 0
f_63 = 0
f_64 = 0
f_65 = 0
f_66 = 0
f_67 = 0
f_68 = 0
f_69 = 0
f_70 = 0
f_71 = 1
f_72 = 0
f_73 = 0
f_74 = 0
f_75 = 0
f_76 = 0
f_77 = 0
f_78 = 0
f_79 = 0
f_80 = 0
f_81 = 0
f_82 = 0
f_83 = 0
f_84 = 0
f_85 = 0
f_86 = 0
f_87 = 0
f_88 = 0
f_89 = 0
f_90 = 0
f_91 = 0
f_92 = 0
f_93 = 0
f_94 = 0
f_95 = 0
f_96 = 0
f_97 = 0
f_98 = 0
f_99 = 0
f_100 = 0
f_101 = 0
f_102 = 0
f_103 = 0
f_104 = 0
f_105 = 0
f_106 = 0
f_107 = 0
f_108 = 0
f_109 = 0
f_110 = 0
f_111 = 0
f_112 = 0
f_113 = 0
f_114 = 0
f_115 = 0
f_116 = 0
f_117 = 0
f_118 = 0
f_119 = 0
f_120 = 0
f_121 = 0
f_122 = 0
f_123 = 0
f_124 = 0
f_125 = 0
f_126 = 0
f_127 = 0
f_128 = 0
f_129 = 0
f_130 = 0
f_131 = 0
f_132 = 0
f_133 = 0
f_134 = 0
f_135 = 0
f_136 = 0
f_137 = 0
f_138 = 0
f_139 = 0
f_140 = 0
f_141 = 0
f_142 = 0
f_143 = 0
f_144 = 0
f_145 = 0
f_146 = 0
f_147 = 0
f_148 = 0
f_149 = 0
f_150 = 0
f_151 = 0
f_152 = 0
f_153 = 0
f_154 = 0
f_155 = 0
f_156 = 0
f_157 = 0
f_158 = 0
f_159 = 0
f_160 = 0
f_161 = 0
f_162 = 0
f_163 = 0
f_164 = -0
f_165 = 0
f_166 = 0
f_167 = 0
f_168 = 0
f_169 = 0
f_170 = 0
f_171 = 0
f_172 = 0
f_173 = 0
f_174 = 0
f_175 = 0
f_176 = 0
f_177 = 0
f_178 = 0
f_179 = 0
f_180 = 0
f_181 = 0
f_182 = 0
f_183 = 0
f_184 = 0
f_185 = 0
f_186 = 0
f_187 = 0
f_188 = 0
f_189 = 0
f_190 = 0
f_191 = 0
f_192 = 0
f_193 = 0
f_194 = 0
f_195 = 0
f_196 = 0
f_197 = 0
f_198 = 0
f_199 = 0
f_200 = 0
f_201 = 0
f_202 = 0
f_203 = 0
f_204 = 0
f_205 = 0
f_206 = 0
f_207 = 0
f_208 = 0
f_209 = 0
f_210 = 0
f_211 = 0
f_212 = 0
f_213 = 0
f_214 = 0
f_215 = 0
f_216 = 0
f_217 = 0
f_218 = 0
f_219 = 0
f_220 = 0
f_221 = 0
f_222 = 0
f_223 = 0
f_224 = 0
f_225 = 0
f_226 = 0
f_227 = 0
f_228 = 0
f_229 = 0
f_230 = 0
f_231 = 0
f_232 = 0
f_233 = 0
f_234 = 0
f_235 = 0
f_236 = 0
f_237 = 0
f_238 = 0
f_239 = 0
f_240 = 0
f_241 = 0
f_242 = 0
f_243 = 0
f_244 = 0
f_245 = 0
f_246 = 0
f_247 = 0
f_248 = 0
f_249 = 0
f_250 = 0
f_251 = 0
f_252 = 0
f_253 = 0
f_254 = 0
f_255 = 0
f_256 = 0
f_257 = 0
f_258 = 0
f_259 = 0
f_260 = 0
f_261 = 0
f_262 = 0
f_263 = 0
f_264 = 0
f_265 = -0
f_266 = -0
f_267 = 0
f_268 = 0
f_269 = 0
f_270 = 0
f_271 = 0
f_272 = 0
f_273 = 0
f_274 = 0
f_275 = 0
f_276 = 0
f_277 = 0
f_278 = 0
f_279 = 0
f_280 = 0
f_281 = 0
f_282 = 0
f_283 = 0
f_284 = 0
f_285 = 0
f_286 = 0
f_287 = 0
f_288 = 0
f_289 = 0
f_290 = 0
f_291 = 0
f_292 = 0
f_293 = 0
f_294 = -0
f_295 = -0
f_296 = -0
f_297 = 0
f_298 = 0
f_299 = 0
q_0 = -0
q_1 = -0
q_2 = -0
q_3 = 0
q_4 = 1
q_5 = 0
q_6 = 0
q_7 = 1
q_8 = 0
q_9 = 0
q_10 = 0
q_11 = 0
q_12 = 0
q_13 = 0
q_14 = 0
q_15 = 0
q_16 = 0
q_17 = 0
q_18 = 0
q_19 = 0
q_20 = 0
q_21 = 0
q_22 = 0
q_23 = 0
q_24 = 0
q_25 = 0
q_26 = 0
q_27 = 0
q_28 = 0
q_29 = -0
v_01^0 = 0
v_01^1 = 0
v_01^2 = 0
v_01^3 = 0
v_01^4 = 0
v_01^5 = 0
v_01^6 = 0
v_01^7 = 0
v_01^8 = 0
v_01^9 = 0
v_01^10 = 0
v_01^11 = 0
v_01^12 = 0
v_01^13 = 0
v_01^14 = 0
v_01^15 = 0
v_01^16 = 0
v_01^17 = 0
v_01^18 = 0
v_01^19 = 0
v_01^20 = 0
v_01^21 = 0
v_01^22 = 0
v_01^23 = 0
v_01^24 = 0
v_01^25 = 0
v_01^26 = 0
v_01^27 = 0
v_01^28 = 0
v_01^29 = 0
v_02^0 = 0
v_02^1 = 0
v_02^2 = 0
v_02^3 = 0
v_02^4 = 0
v_02^5 = 0
v_02^6 = 0
v_02^7 = 0
v_02^8 = 0
v_02^9 = 0
v_02^10 = 0
v_02^11 = 0
v_02^12 = 0
v_02^13 = 0
v_02^14 = 0
v_02^15 = 0
v_02^16 = 0
v_02^17 = 0
v_02^18 = 0
v_02^19 = 0
v_02^20 = 0
v_02^21 = 0
v_02^22 = 0
v_02^23 = 0
v_02^24 = 0
v_02^25 = 0
v_02^26 = 0
v_02^27 = 0
v_02^28 = 0
v_02^29 = 0
v_03^0 = 0
v_03^1 = 0
v_03^2 = 0
v_03^3 = 0
v_03^4 = 0
v_03^5 = 0
v_03^6 = 0
v_03^7 = 0
v_03^8 = 0
v_03^9 = 0
v_03^10 = 0
v_03^11 = 0
v_03^12 = 0
v_03^13 = 0
v_03^14 = 0
v_03^15 = 0
v_03^16 = 0
v_03^17 = 0
v_03^18 = 0
v_03^19 = 0
v_03^20 = 0
v_03^21 = 0
v_03^22 = 0
v_03^23 = 0
v_03^24 = 0
v_03^25 = 0
v_03^26 = 0
v_03^27 = 0
v_03^28 = 0
v_03^29 = 0
v_04^0 = 0
v_04^1 = 0
v_04^2 = 0
v_04^3 = 0
v_04^4 = 0
v_04^5 = 0
v_04^6 = 0
v_04^7 = 0
v_04^8 = 0
v_04^9 = 0
v_04^10 = 0
v_04^11 = 0
v_04^12 = 0
v_04^13 = 0
v_04^14 = 0
v_04^15 = 0
v_04^16 = 0
v_04^17 = 0
v_04^18 = 0
v_04^19 = 0
v_04^20 = 0
v_04^21 = 0
v_04^22 = 0
v_04^23 = 0
v_04^24 = 0
v_04^25 = 0
v_04^26 = 0
v_04^27 = 0
v_04^28 = 0
v_04^29 = 0
v_05^0 = 0
v_05^1 = 0
v_05^2 = 0
v_05^3 = 0
v_05^4 = 0
v_05^5 = 0
v_05^6 = 0
v_05^7 = 0
v_05^8 = 0
v_05^9 = 0
v_05^10 = 0
v_05^11 = 0
v_05^12 = 0
v_05^13 = 0
v_05^14 = 0
v_05^15 = 0
v_05^16 = 0
v_05^17 = 0
v_05^18 = 0
v_05^19 = 0
v_05^20 = 0
v_05^21 = 0
v_05^22 = 0
v_05^23 = 0
v_05^24 = 0
v_05^25 = 0
v_05^26 = 0
v_05^27 = 0
v_05^28 = 0
v_05^29 = 0
v_06^0 = 0
v_06^1 = 0
v_06^2 = 0
v_06^3 = 0
v_06^4 = 0
v_06^5 = 0
v_06^6 = 0
v_06^7 = 0
v_06^8 = 0
v_06^9 = 0
v_06^10 = 0
v_06^11 = 0
v_06^12 = 0
v_06^13 = 0
v_06^14 = 0
v_06^15 = 0
v_06^16 = 0
v_06^17 = 0
v_06^18 = 0
v_06^19 = 0
v_06^20 = 0
v_06^21 = 0
v_06^22 = 0
v_06^23 = 0
v_06^24 = 0
v_06^25 = 0
v_06^26 = 0
v_06^27 = 0
v_06^28 = 0
v_06^29 = 0
v_07^0 = 0
v_07^1 = 0
v_07^2 = 0
v_07^3 = 0
v_07^4 = 0
v_07^5 = 0
v_07^6 = 0
v_07^7 = 0
v_07^8 = 0
v_07^9 = 0
v_07^10 = 0
v_07^11 = 0
v_07^12 = 0
v_07^13 = 0
v_07^14 = 0
v_07^15 = 0
v_07^16 = 0
v_07^17 = 0
v_07^18 = 0
v_07^19 = 0
v_07^20 = 0
v_07^21 = 0
v_07^22 = 0
v_07^23 = 0
v_07^24 = 0
v_07^25 = 0
v_07^26 = 0
v_07^27 = 0
v_07^28 = 0
v_07^29 = 0
v_08^0 = 0
v_08^1 = 0
v_08^2 = 0
v_08^3 = 0
v_08^4 = 0
v_08^5 = 0
v_08^6 = 0
v_08^7 = 0
v_08^8 = 0
v_08^9 = 0
v_08^10 = 0
v_08^11 = 0
v_08^12 = 0
v_08^13 = 0
v_08^14 = 0
v_08^15 = 0
v_08^16 = 0
v_08^17 = 0
v_08^18 = 0
v_08^19 = 0
v_08^20 = 0
v_08^21 = 0
v_08^22 = 0
v_08^23 = 0
v_08^24 = 0
v_08^25 = 0
v_08^26 = 0
v_08^27 = 0
v_08^28 = 0
v_08^29 = 0
v_09^0 = 0
v_09^1 = 0
v_09^2 = 0
v_09^3 = 0
v_09^4 = 0
v_09^5 = 0
v_09^6 = 0
v_09^7 = 0
v_09^8 = 0
v_09^9 = 0
v_09^10 = 0
v_09^11 = 0
v_09^12 = 0
v_09^13 = 0
v_09^14 = 0
v_09^15 = 0
v_09^16 = 0
v_09^17 = 0
v_09^18 = 0
v_09^19 = 0
v_09^20 = 0
v_09^21 = 0
v_09^22 = 0
v_09^23 = 0
v_09^24 = 0
v_09^25 = 0
v_09^26 = 0
v_09^27 = 0
v_09^28 = 0
v_09^29 = 0
v_10^0 = 0
v_10^1 = 0
v_10^2 = 0
v_10^3 = 0
v_10^4 = 0
v_10^5 = 0
v_10^6 = 0
v_10^7 = 0
v_10^8 = 0
v_10^9 = 0
v_10^10 = 0
v_10^11 = 0
v_10^12 = 0
v_10^13 = 0
v_10^14 = 0
v_10^15 = 0
v_10^16 = 0
v_10^17 = 0
v_10^18 = 0
v_10^19 = 0
v_10^20 = 0
v_10^21 = 0
v_10^22 = 0
v_10^23 = 0
v_10^24 = 0
v_10^25 = 0
v_10^26 = 0
v_10^27 = 0
v_10^28 = 0
v_10^29 = 0
v_12^0 = 0
v_12^1 = 0
v_12^2 = 0
v_12^3 = 0
v_12^4 = 0
v_12^5 = 0
v_12^6 = 0
v_12^7 = 0
v_12^8 = 0
v_12^9 = 0
v_12^10 = 0
v_12^11 = 0
v_12^12 = 0
v_12^13 = 0
v_12^14 = 0
v_12^15 = 0
v_12^16 = 0
v_12^17 = 0
v_12^18 = 0
v_12^19 = 0
v_12^20 = 0
v_12^21 = 0
v_12^22 = 0
v_12^23 = 0
v_12^24 = 0
v_12^25 = 0
v_12^26 = 0
v_12^27 = 0
v_12^28 = 0
v_12^29 = 0
v_13^0 = 0
v_13^1 = 0
v_13^2 = 0
v_13^3 = 0
v_13^4 = 0
v_13^5 = 0
v_13^6 = 0
v_13^7 = 0
v_13^8 = 0
v_13^9 = 0
v_13^10 = 0
v_13^11 = 0
v_13^12 = 0
v_13^13 = 0
v_13^14 = 0
v_13^15 = 0
v_13^16 = 0
v_13^17 = 0
v_13^18 = 0
v_13^19 = 0
v_13^20 = 0
v_13^21 = 0
v_13^22 = 0
v_13^23 = 0
v_13^24 = 0
v_13^25 = 0
v_13^26 = 0
v_13^27 = 0
v_13^28 = 0
v_13^29 = 0
v_14^0 = 0
v_14^1 = 0
v_14^2 = 0
v_14^3 = 0
v_14^4 = 0
v_14^5 = 0
v_14^6 = 0
v_14^7 = 0
v_14^8 = 0
v_14^9 = 0
v_14^10 = 0
v_14^11 = 0
v_14^12 = 0
v_14^13 = 0
v_14^14 = 0
v_14^15 = 0
v_14^16 = 0
v_14^17 = 0
v_14^18 = 0
v_14^19 = 0
v_14^20 = 0
v_14^21 = 0
v_14^22 = 0
v_14^23 = 0
v_14^24 = 0
v_14^25 = 0
v_14^26 = 0
v_14^27 = 0
v_14^28 = 0
v_14^29 = 0
v_15^0 = 0
v_15^1 = 0
v_15^2 = 0
v_15^3 = 0
v_15^4 = 0
v_15^5 = 0
v_15^6 = 0
v_15^7 = 0
v_15^8 = 0
v_15^9 = 0
v_15^10 = 0
v_15^11 = 0
v_15^12 = 0
v_15^13 = 0
v_15^14 = 0
v_15^15 = 0
v_15^16 = 0
v_15^17 = 0
v_15^18 = 0
v_15^19 = 0
v_15^20 = 0
v_15^21 = 0
v_15^22 = 0
v_15^23 = 0
v_15^24 = 0
v_15^25 = 0
v_15^26 = 0
v_15^27 = 0
v_15^28 = 0
v_15^29 = 0
v_16^0 = 0
v_16^1 = 0
v_16^2 = 0
v_16^3 = 0
v_16^4 = 0
v_16^5 = 0
v_16^6 = 0
v_16^7 = 0
v_16^8 = 0
v_16^9 = 0
v_16^10 = 0
v_16^11 = 0
v_16^12 = 0
v_16^13 = 0
v_16^14 = 0
v_16^15 = 0
v_16^16 = 0
v_16^17 = 0
v_16^18 = 0
v_16^19 = 0
v_16^20 = 0
v_16^21 = 0
v_16^22 = 0
v_16^23 = 0
v_16^24 = 0
v_16^25 = 0
v_16^26 = 0
v_16^27 = 0
v_16^28 = 0
v_16^29 = 0
v_17^0 = 0
v_17^1 = 0
v_17^2 = 0
v_17^3 = 0
v_17^4 = 1
v_17^5 = 0
v_17^6 = 0
v_17^7 = 0
v_17^8 = 0
v_17^9 = 0
v_17^10 = 0
v_17^11 = 0
v_17^12 = 0
v_17^13 = 0
v_17^14 = 0
v_17^15 = 0
v_17^16 = 0
v_17^17 = 0
v_17^18 = 0
v_17^19 = 0
v_17^20 = 0
v_17^21 = 0
v_17^22 = 0
v_17^23 = 0
v_17^24 = 0
v_17^25 = 0
v_17^26 = 0
v_17^27 = 0
v_17^28 = 0
v_17^29 = 0
v_18^0 = 0
v_18^1 = 0
v_18^2 = 0
v_18^3 = 0
v_18^4 = 0
v_18^5 = 0
v_18^6 = 0
v_18^7 = 0
v_18^8 = 0
v_18^9 = 0
v_18^10 = 0
v_18^11 = 0
v_18^12 = 0
v_18^13 = 0
v_18^14 = 0
v_18^15 = 0
v_18^16 = 0
v_18^17 = 0
v_18^18 = 0
v_18^19 = 0
v_18^20 = 0
v_18^21 = 0
v_18^22 = 0
v_18^23 = 0
v_18^24 = 0
v_18^25 = 0
v_18^26 = 0
v_18^27 = 0
v_18^28 = 0
v_18^29 = 0
v_19^0 = 0
v_19^1 = 0
v_19^2 = 0
v_19^3 = 0
v_19^4 = 0
v_19^5 = 0
v_19^6 = 0
v_19^7 = 0
v_19^8 = 0
v_19^9 = 0
v_19^10 = 0
v_19^11 = 0
v_19^12 = 0
v_19^13 = 0
v_19^14 = 0
v_19^15 = 0
v_19^16 = 0
v_19^17 = 0
v_19^18 = 0
v_19^19 = 0
v_19^20 = 0
v_19^21 = 0
v_19^22 = 0
v_19^23 = 0
v_19^24 = 0
v_19^25 = 0
v_19^26 = 0
v_19^27 = 0
v_19^28 = 0
v_19^29 = 0
v_20^0 = 0
v_20^1 = 0
v_20^2 = 0
v_20^3 = 0
v_20^4 = 0
v_20^5 = 0
v_20^6 = 0
v_20^7 = 0
v_20^8 = 0
v_20^9 = 0
v_20^10 = 0
v_20^11 = 0
v_20^12 = 0
v_20^13 = 0
v_20^14 = 0
v_20^15 = 0
v_20^16 = 0
v_20^17 = 0
v_20^18 = 0
v_20^19 = 0
v_20^20 = 0
v_20^21 = 0
v_20^22 = 0
v_20^23 = 0
v_20^24 = 0
v_20^25 = 0
v_20^26 = 0
v_20^27 = 0
v_20^28 = 0
v_20^29 = 0
v_21^0 = 0
v_21^1 = 0
v_21^2 = 0
v_21^3 = 0
v_21^4 = 0
v_21^5 = 0
v_21^6 = 0
v_21^7 = 1
v_21^8 = 0
v_21^9 = 0
v_21^10 = 0
v_21^11 = 0
v_21^12 = 0
v_21^13 = 0
v_21^14 = 0
v_21^15 = 0
v_21^16 = 0
v_21^17 = 0
v_21^18 = 0
v_21^19 = 0
v_21^20 = 0
v_21^21 = 0
v_21^22 = 0
v_21^23 = 0
v_21^24 = 0
v_21^25 = 0
v_21^26 = 0
v_21^27 = 0
v_21^28 = 0
v_21^29 = 0
v_23^0 = 0
v_23^1 = 0
v_23^2 = 0
v_23^3 = 0
v_23^4 = 0
v_23^5 = 0
v_23^6 = 0
v_23^7 = 0
v_23^8 = 0
v_23^9 = 0
v_23^10 = 0
v_23^11 = 0
v_23^12 = 0
v_23^13 = 0
v_23^14 = 0
v_23^15 = 0
v_23^16 = 0
v_23^17 = 0
v_23^18 = 0
v_23^19 = 0
v_23^20 = 0
v_23^21 = 0
v_23^22 = 0
v_23^23 = 0
v_23^24 = 0
v_23^25 = 0
v_23^26 = 0
v_23^27 = 0
v_23^28 = 0
v_23^29 = 0
v_24^0 = 0
v_24^1 = 0
v_24^2 = 0
v_24^3 = 0
v_24^4 = 0
v_24^5 = 0
v_24^6 = 0
v_24^7 = 0
v_24^8 = 0
v_24^9 = 0
v_24^10 = 0
v_24^11 = 0
v_24^12 = 0
v_24^13 = 0
v_24^14 = 0
v_24^15 = 0
v_24^16 = 0
v_24^17 = 0
v_24^18 = 0
v_24^19 = 0
v_24^20 = 0
v_24^21 = 0
v_24^22 = 0
v_24^23 = 0
v_24^24 = 0
v_24^25 = 0
v_24^26 = 0
v_24^27 = 0
v_24^28 = 0
v_24^29 = 0
v_25^0 = 0
v_25^1 = 0
v_25^2 = 0
v_25^3 = 0
v_25^4 = 0
v_25^5 = 0
v_25^6 = 0
v_25^7 = 0
v_25^8 = 0
v_25^9 = 0
v_25^10 = 0
v_25^11 = 0
v_25^12 = 0
v_25^13 = 0
v_25^14 = 0
v_25^15 = 0
v_25^16 = 0
v_25^17 = 0
v_25^18 = 0
v_25^19 = 0
v_25^20 = 0
v_25^21 = 0
v_25^22 = 0
v_25^23 = 0
v_25^24 = 0
v_25^25 = 0
v_25^26 = 0
v_25^27 = 0
v_25^28 = 0
v_25^29 = 0
v_26^0 = 0
v_26^1 = 0
v_26^2 = 0
v_26^3 = 0
v_26^4 = 0
v_26^5 = 0
v_26^6 = 0
v_26^7 = 0
v_26^8 = 0
v_26^9 = 0
v_26^10 = 0
v_26^11 = 0
v_26^12 = 0
v_26^13 = 0
v_26^14 = 0
v_26^15 = 0
v_26^16 = 0
v_26^17 = 0
v_26^18 = 0
v_26^19 = 0
v_26^20 = 0
v_26^21 = 0
v_26^22 = 0
v_26^23 = 0
v_26^24 = 0
v_26^25 = 0
v_26^26 = 0
v_26^27 = 0
v_26^28 = 0
v_26^29 = 0
v_27^0 = 0
v_27^1 = 0
v_27^2 = 0
v_27^3 = 0
v_27^4 = 0
v_27^5 = 0
v_27^6 = 0
v_27^7 = 0
v_27^8 = 0
v_27^9 = 0
v_27^10 = 0
v_27^11 = 0
v_27^12 = 0
v_27^13 = 0
v_27^14 = 0
v_27^15 = 0
v_27^16 = 0
v_27^17 = 0
v_27^18 = 0
v_27^19 = 0
v_27^20 = 0
v_27^21 = 0
v_27^22 = 0
v_27^23 = 0
v_27^24 = 0
v_27^25 = 0
v_27^26 = 0
v_27^27 = 0
v_27^28 = 0
v_27^29 = 0
v_28^0 = 0
v_28^1 = 0
v_28^2 = 0
v_28^3 = 0
v_28^4 = 0
v_28^5 = 0
v_28^6 = 0
v_28^7 = 0
v_28^8 = 0
v_28^9 = 0
v_28^10 = 0
v_28^11 = 0
v_28^12 = 0
v_28^13 = 0
v_28^14 = 0
v_28^15 = 0
v_28^16 = 0
v_28^17 = 0
v_28^18 = 0
v_28^19 = 0
v_28^20 = 0
v_28^21 = 0
v_28^22 = 0
v_28^23 = 0
v_28^24 = 0
v_28^25 = 0
v_28^26 = 0
v_28^27 = 0
v_28^28 = 0
v_28^29 = 0
v_29^0 = 0
v_29^1 = 0
v_29^2 = 0
v_29^3 = 0
v_29^4 = 0
v_29^5 = 0
v_29^6 = 0
v_29^7 = 0
v_29^8 = 0
v_29^9 = 0
v_29^10 = 0
v_29^11 = 0
v_29^12 = 0
v_29^13 = 0
v_29^14 = 0
v_29^15 = 0
v_29^16 = 0
v_29^17 = 0
v_29^18 = 0
v_29^19 = 0
v_29^20 = 0
v_29^21 = 0
v_29^22 = 0
v_29^23 = 0
v_29^24 = 0
v_29^25 = 0
v_29^26 = 0
v_29^27 = 0
v_29^28 = 0
v_29^29 = 0
v_30^0 = 0
v_30^1 = 0
v_30^2 = 0
v_30^3 = 0
v_30^4 = 0
v_30^5 = 0
v_30^6 = 0
v_30^7 = 0
v_30^8 = 0
v_30^9 = 0
v_30^10 = 0
v_30^11 = 0
v_30^12 = 0
v_30^13 = 0
v_30^14 = 0
v_30^15 = 0
v_30^16 = 0
v_30^17 = 0
v_30^18 = 0
v_30^19 = 0
v_30^20 = 0
v_30^21 = 0
v_30^22 = 0
v_30^23 = 0
v_30^24 = 0
v_30^25 = 0
v_30^26 = 0
v_30^27 = 0
v_30^28 = 0
v_30^29 = 0
v_31^0 = 0
v_31^1 = 0
v_31^2 = 0
v_31^3 = 0
v_31^4 = 0
v_31^5 = 0
v_31^6 = 0
v_31^7 = 0
v_31^8 = 0
v_31^9 = 0
v_31^10 = 0
v_31^11 = 0
v_31^12 = 0
v_31^13 = 0
v_31^14 = 0
v_31^15 = 0
v_31^16 = 0
v_31^17 = 0
v_31^18 = 0
v_31^19 = 0
v_31^20 = 0
v_31^21 = 0
v_31^22 = 0
v_31^23 = 0
v_31^24 = 0
v_31^25 = 0
v_31^26 = 0
v_31^27 = 0
v_31^28 = 0
v_31^29 = 0
v_32^0 = 0
v_32^1 = 0
v_32^2 = 0
v_32^3 = 0
v_32^4 = 0
v_32^5 = 0
v_32^6 = 0
v_32^7 = 0
v_32^8 = 0
v_32^9 = 0
v_32^10 = 0
v_32^11 = 0
v_32^12 = 0
v_32^13 = 0
v_32^14 = 0
v_32^15 = 0
v_32^16 = 0
v_32^17 = 0
v_32^18 = 0
v_32^19 = 0
v_32^20 = 0
v_32^21 = 0
v_32^22 = 0
v_32^23 = 0
v_32^24 = 0
v_32^25 = 0
v_32^26 = 0
v_32^27 = 0
v_32^28 = 0
v_32^29 = 0
v_34^0 = 0
v_34^1 = 0
v_34^2 = 0
v_34^3 = 0
v_34^4 = 0
v_34^5 = 0
v_34^6 = 0
v_34^7 = 0
v_34^8 = 0
v_34^9 = 0
v_34^10 = 0
v_34^11 = 0
v_34^12 = 0
v_34^13 = 0
v_34^14 = 0
v_34^15 = 0
v_34^16 = 0
v_34^17 = 0
v_34^18 = 0
v_34^19 = 0
v_34^20 = 0
v_34^21 = 0
v_34^22 = 0
v_34^23 = 0
v_34^24 = 0
v_34^25 = 0
v_34^26 = 0
v_34^27 = 0
v_34^28 = 0
v_34^29 = 0
v_35^0 = 0
v_35^1 = 0
v_35^2 = 0
v_35^3 = 0
v_35^4 = 0
v_35^5 = 0
v_35^6 = 0
v_35^7 = 0
v_35^8 = 0
v_35^9 = 0
v_35^10 = 0
v_35^11 = 0
v_35^12 = 0
v_35^13 = 0
v_35^14 = 0
v_35^15 = 0
v_35^16 = 0
v_35^17 = 0
v_35^18 = 0
v_35^19 = 0
v_35^20 = 0
v_35^21 = 0
v_35^22 = 0
v_35^23 = 0
v_35^24 = 0
v_35^25 = 0
v_35^26 = 0
v_35^27 = 0
v_35^28 = 0
v_35^29 = 0
v_36^0 = 0
v_36^1 = 0
v_36^2 = 0
v_36^3 = 0
v_36^4 = 0
v_36^5 = 0
v_36^6 = 0
v_36^7 = 0
v_36^8 = 0
v_36^9 = 0
v_36^10 = 0
v_36^11 = 0
v_36^12 = 0
v_36^13 = 0
v_36^14 = 0
v_36^15 = 0
v_36^16 = 0
v_36^17 = 0
v_36^18 = 0
v_36^19 = 0
v_36^20 = 0
v_36^21 = 0
v_36^22 = 0
v_36^23 = 0
v_36^24 = 0
v_36^25 = 0
v_36^26 = 0
v_36^27 = 0
v_36^28 = 0
v_36^29 = 0
v_37^0 = 0
v_37^1 = 0
v_37^2 = 0
v_37^3 = 0
v_37^4 = 0
v_37^5 = 0
v_37^6 = 0
v_37^7 = 0
v_37^8 = 0
v_37^9 = 0
v_37^10 = 0
v_37^11 = 0
v_37^12 = 0
v_37^13 = 0
v_37^14 = 0
v_37^15 = 0
v_37^16 = 0
v_37^17 = 0
v_37^18 = 0
v_37^19 = 0
v_37^20 = 0
v_37^21 = 0
v_37^22 = 0
v_37^23 = 0
v_37^24 = 0
v_37^25 = 0
v_37^26 = 0
v_37^27 = 0
v_37^28 = 0
v_37^29 = 0
v_38^0 = 0
v_38^1 = 0
v_38^2 = 0
v_38^3 = 0
v_38^4 = 0
v_38^5 = 0
v_38^6 = 0
v_38^7 = 0
v_38^8 = 0
v_38^9 = 0
v_38^10 = 0
v_38^11 = 0
v_38^12 = 0
v_38^13 = 0
v_38^14 = 0
v_38^15 = 0
v_38^16 = 0
v_38^17 = 0
v_38^18 = 0
v_38^19 = 0
v_38^20 = 0
v_38^21 = 0
v_38^22 = 0
v_38^23 = 0
v_38^24 = 0
v_38^25 = 0
v_38^26 = 0
v_38^27 = 0
v_38^28 = 0
v_38^29 = 0
v_39^0 = 0
v_39^1 = 0
v_39^2 = 0
v_39^3 = 0
v_39^4 = 0
v_39^5 = 0
v_39^6 = 0
v_39^7 = 0
v_39^8 = 0
v_39^9 = 0
v_39^10 = 0
v_39^11 = 0
v_39^12 = 0
v_39^13 = 0
v_39^14 = 0
v_39^15 = 0
v_39^16 = 0
v_39^17 = 0
v_39^18 = 0
v_39^19 = 0
v_39^20 = 0
v_39^21 = 0
v_39^22 = 0
v_39^23 = 0
v_39^24 = 0
v_39^25 = 0
v_39^26 = 0
v_39^27 = 0
v_39^28 = 0
v_39^29 = 0
v_40^0 = 0
v_40^1 = 0
v_40^2 = 0
v_40^3 = 0
v_40^4 = 0
v_40^5 = 0
v_40^6 = 0
v_40^7 = 0
v_40^8 = 0
v_40^9 = 0
v_40^10 = 0
v_40^11 = 0
v_40^12 = 0
v_40^13 = 0
v_40^14 = 0
v_40^15 = 0
v_40^16 = 0
v_40^17 = 0
v_40^18 = 0
v_40^19 = 0
v_40^20 = 0
v_40^21 = 0
v_40^22 = 0
v_40^23 = 0
v_40^24 = 0
v_40^25 = 0
v_40^26 = 0
v_40^27 = 0
v_40^28 = 0
v_40^29 = 0
v_41^0 = 0
v_41^1 = 0
v_41^2 = 0
v_41^3 = 0
v_41^4 = 0
v_41^5 = 0
v_41^6 = 0
v_41^7 = 0
v_41^8 = 0
v_41^9 = 0
v_41^10 = 0
v_41^11 = 0
v_41^12 = 0
v_41^13 = 0
v_41^14 = 0
v_41^15 = 0
v_41^16 = 0
v_41^17 = 0
v_41^18 = 0
v_41^19 = 0
v_41^20 = 0
v_41^21 = 0
v_41^22 = 0
v_41^23 = 0
v_41^24 = 0
v_41^25 = 0
v_41^26 = 0
v_41^27 = 0
v_41^28 = 0
v_41^29 = 0
v_42^0 = 0
v_42^1 = 0
v_42^2 = 0
v_42^3 = 0
v_42^4 = 0
v_42^5 = 0
v_42^6 = 0
v_42^7 = 0
v_42^8 = 0
v_42^9 = 0
v_42^10 = 0
v_42^11 = 0
v_42^12 = 0
v_42^13 = 0
v_42^14 = 0
v_42^15 = 0
v_42^16 = 0
v_42^17 = 0
v_42^18 = 0
v_42^19 = 0
v_42^20 = -0
v_42^21 = 0
v_42^22 = 0
v_42^23 = 0
v_42^24 = 0
v_42^25 = 0
v_42^26 = 0
v_42^27 = 0
v_42^28 = 0
v_42^29 = -0
v_43^0 = 0
v_43^1 = 0
v_43^2 = 0
v_43^3 = 0
v_43^4 = 0
v_43^5 = 0
v_43^6 = 0
v_43^7 = 0
v_43^8 = 0
v_43^9 = 0
v_43^10 = 0
v_43^11 = 0
v_43^12 = 0
v_43^13 = 0
v_43^14 = 0
v_43^15 = 0
v_43^16 = 0
v_43^17 = 0
v_43^18 = 0
v_43^19 = 0
v_43^20 = 0
v_43^21 = 0
v_43^22 = 0
v_43^23 = 0
v_43^24 = 0
v_43^25 = 0
v_43^26 = 0
v_43^27 = 0
v_43^28 = 0
v_43^29 = 0
v_45^0 = 0
v_45^1 = 0
v_45^2 = 0
v_45^3 = 0
v_45^4 = 0
v_45^5 = 0
v_45^6 = 0
v_45^7 = 0
v_45^8 = 0
v_45^9 = 0
v_45^10 = 0
v_45^11 = 0
v_45^12 = 0
v_45^13 = 0
v_45^14 = 0
v_45^15 = 0
v_45^16 = 0
v_45^17 = 0
v_45^18 = 0
v_45^19 = 0
v_45^20 = 0
v_45^21 = 0
v_45^22 = 0
v_45^23 = 0
v_45^24 = 0
v_45^25 = 0
v_45^26 = 0
v_45^27 = 0
v_45^28 = 0
v_45^29 = 0
v_46^0 = 0
v_46^1 = 0
v_46^2 = 0
v_46^3 = 0
v_46^4 = 0
v_46^5 = 0
v_46^6 = 0
v_46^7 = 0
v_46^8 = 0
v_46^9 = 0
v_46^10 = 0
v_46^11 = 0
v_46^12 = 0
v_46^13 = 0
v_46^14 = 0
v_46^15 = 0
v_46^16 = 0
v_46^17 = 0
v_46^18 = 0
v_46^19 = 0
v_46^20 = 0
v_46^21 = 0
v_46^22 = 0
v_46^23 = 0
v_46^24 = 0
v_46^25 = 0
v_46^26 = 0
v_46^27 = 0
v_46^28 = 0
v_46^29 = 0
v_47^0 = 0
v_47^1 = 0
v_47^2 = 0
v_47^3 = 0
v_47^4 = 0
v_47^5 = 0
v_47^6 = 0
v_47^7 = 0
v_47^8 = 0
v_47^9 = 0
v_47^10 = 0
v_47^11 = 0
v_47^12 = 0
v_47^13 = 0
v_47^14 = 0
v_47^15 = 0
v_47^16 = 0
v_47^17 = 0
v_47^18 = 0
v_47^19 = 0
v_47^20 = 0
v_47^21 = 0
v_47^22 = 0
v_47^23 = 0
v_47^24 = 0
v_47^25 = 0
v_47^26 = 0
v_47^27 = 0
v_47^28 = 0
v_47^29 = 0
v_48^0 = 0
v_48^1 = 0
v_48^2 = 0
v_48^3 = 0
v_48^4 = 0
v_48^5 = 0
v_48^6 = 0
v_48^7 = 0
v_48^8 = 0
v_48^9 = 0
v_48^10 = 0
v_48^11 = 0
v_48^12 = 0
v_48^13 = 0
v_48^14 = 0
v_48^15 = 0
v_48^16 = 0
v_48^17 = 0
v_48^18 = 0
v_48^19 = 0
v_48^20 = 0
v_48^21 = 0
v_48^22 = 0
v_48^23 = 0
v_48^24 = 0
v_48^25 = 0
v_48^26 = 0
v_48^27 = 0
v_48^28 = 0
v_48^29 = 0
v_49^0 = 0
v_49^1 = 0
v_49^2 = 0
v_49^3 = 0
v_49^4 = 0
v_49^5 = 0
v_49^6 = 0
v_49^7 = 0
v_49^8 = 0
v_49^9 = 0
v_49^10 = 0
v_49^11 = 0
v_49^12 = 0
v_49^13 = 0
v_49^14 = 0
v_49^15 = 0
v_49^16 = 0
v_49^17 = 0
v_49^18 = 0
v_49^19 = 0
v_49^20 = 0
v_49^21 = 0
v_49^22 = 0
v_49^23 = 0
v_49^24 = 0
v_49^25 = 0
v_49^26 = 0
v_49^27 = 0
v_49^28 = 0
v_49^29 = 0
v_50^0 = 0
v_50^1 = 0
v_50^2 = 0
v_50^3 = 0
v_50^4 = 0
v_50^5 = 0
v_50^6 = 0
v_50^7 = 0
v_50^8 = 0
v_50^9 = 0
v_50^10 = 0
v_50^11 = 0
v_50^12 = 0
v_50^13 = 0
v_50^14 = 0
v_50^15 = 0
v_50^16 = 0
v_50^17 = 0
v_50^18 = 0
v_50^19 = 0
v_50^20 = 0
v_50^21 = 0
v_50^22 = 0
v_50^23 = 0
v_50^24 = 0
v_50^25 = 0
v_50^26 = 0
v_50^27 = 0
v_50^28 = 0
v_50^29 = 0
v_51^0 = 0
v_51^1 = 0
v_51^2 = 0
v_51^3 = 0
v_51^4 = 0
v_51^5 = 0
v_51^6 = 0
v_51^7 = 0
v_51^8 = 0
v_51^9 = 0
v_51^10 = 0
v_51^11 = 0
v_51^12 = 0
v_51^13 = 0
v_51^14 = 0
v_51^15 = 0
v_51^16 = 0
v_51^17 = 0
v_51^18 = 0
v_51^19 = 0
v_51^20 = 0
v_51^21 = 0
v_51^22 = 0
v_51^23 = 0
v_51^24 = 0
v_51^25 = 0
v_51^26 = 0
v_51^27 = 0
v_51^28 = 0
v_51^29 = 0
v_52^0 = 0
v_52^1 = 0
v_52^2 = 0
v_52^3 = 0
v_52^4 = 0
v_52^5 = 0
v_52^6 = 0
v_52^7 = 0
v_52^8 = 0
v_52^9 = 0
v_52^10 = 0
v_52^11 = 0
v_52^12 = 0
v_52^13 = 0
v_52^14 = 0
v_52^15 = 0
v_52^16 = 0
v_52^17 = 0
v_52^18 = 0
v_52^19 = 0
v_52^20 = 0
v_52^21 = 0
v_52^22 = 0
v_52^23 = 0
v_52^24 = 0
v_52^25 = 0
v_52^26 = 0
v_52^27 = 0
v_52^28 = 0
v_52^29 = 0
v_53^0 = 0
v_53^1 = 0
v_53^2 = 0
v_53^3 = 0
v_53^4 = 0
v_53^5 = 0
v_53^6 = 0
v_53^7 = 0
v_53^8 = 0
v_53^9 = 0
v_53^10 = 0
v_53^11 = 0
v_53^12 = 0
v_53^13 = 0
v_53^14 = 0
v_53^15 = 0
v_53^16 = 0
v_53^17 = 0
v_53^18 = 0
v_53^19 = 0
v_53^20 = 0
v_53^21 = 0
v_53^22 = 0
v_53^23 = 0
v_53^24 = 0
v_53^25 = 0
v_53^26 = 0
v_53^27 = 0
v_53^28 = 0
v_53^29 = 0
v_54^0 = 0
v_54^1 = 0
v_54^2 = 0
v_54^3 = 0
v_54^4 = 0
v_54^5 = 0
v_54^6 = 0
v_54^7 = 0
v_54^8 = 0
v_54^9 = 0
v_54^10 = 0
v_54^11 = 0
v_54^12 = 0
v_54^13 = 0
v_54^14 = 0
v_54^15 = 0
v_54^16 = 0
v_54^17 = 0
v_54^18 = 0
v_54^19 = 0
v_54^20 = 0
v_54^21 = 0
v_54^22 = 0
v_54^23 = 0
v_54^24 = 0
v_54^25 = 0
v_54^26 = 0
v_54^27 = 0
v_54^28 = 0
v_54^29 = 0
v_56^0 = 0
v_56^1 = 0
v_56^2 = 0
v_56^3 = 0
v_56^4 = 0
v_56^5 = 0
v_56^6 = 0
v_56^7 = 0
v_56^8 = 0
v_56^9 = 0
v_56^10 = 0
v_56^11 = 0
v_56^12 = 0
v_56^13 = 0
v_56^14 = 0
v_56^15 = 0
v_56^16 = 0
v_56^17 = 0
v_56^18 = 0
v_56^19 = 0
v_56^20 = 0
v_56^21 = 0
v_56^22 = 0
v_56^23 = 0
v_56^24 = 0
v_56^25 = 0
v_56^26 = 0
v_56^27 = 0
v_56^28 = 0
v_56^29 = -0
v_57^0 = 0
v_57^1 = 0
v_57^2 = 0
v_57^3 = 0
v_57^4 = 0
v_57^5 = 0
v_57^6 = 0
v_57^7 = 0
v_57^8 = 0
v_57^9 = 0
v_57^10 = 0
v_57^11 = 0
v_57^12 = 0
v_57^13 = 0
v_57^14 = 0
v_57^15 = 0
v_57^16 = 0
v_57^17 = 0
v_57^18 = 0
v_57^19 = 0
v_57^20 = 0
v_57^21 = 0
v_57^22 = 0
v_57^23 = 0
v_57^24 = 0
v_57^25 = 0
v_57^26 = 0
v_57^27 = 0
v_57^28 = 0
v_57^29 = 0
v_58^0 = 0
v_58^1 = 0
v_58^2 = 0
v_58^3 = 0
v_58^4 = 0
v_58^5 = 0
v_58^6 = 0
v_58^7 = 0
v_58^8 = 0
v_58^9 = 0
v_58^10 = 0
v_58^11 = 0
v_58^12 = 0
v_58^13 = 0
v_58^14 = 0
v_58^15 = 0
v_58^16 = 0
v_58^17 = 0
v_58^18 = 0
v_58^19 = 0
v_58^20 = 0
v_58^21 = 0
v_58^22 = 0
v_58^23 = 0
v_58^24 = 0
v_58^25 = 0
v_58^26 = 0
v_58^27 = 0
v_58^28 = 0
v_58^29 = 0
v_59^0 = 0
v_59^1 = 0
v_59^2 = 0
v_59^3 = 0
v_59^4 = 0
v_59^5 = 0
v_59^6 = 0
v_59^7 = 0
v_59^8 = 0
v_59^9 = 0
v_59^10 = 0
v_59^11 = 0
v_59^12 = 0
v_59^13 = 0
v_59^14 = 0
v_59^15 = 0
v_59^16 = 0
v_59^17 = 0
v_59^18 = 0
v_59^19 = 0
v_59^20 = 0
v_59^21 = 0
v_59^22 = 0
v_59^23 = 0
v_59^24 = 0
v_59^25 = 0
v_59^26 = 0
v_59^27 = 0
v_59^28 = 0
v_59^29 = 0
v_60^0 = 0
v_60^1 = 0
v_60^2 = 0
v_60^3 = 0
v_60^4 = 0
v_60^5 = 0
v_60^6 = 0
v_60^7 = 0
v_60^8 = 0
v_60^9 = 0
v_60^10 = 0
v_60^11 = 0
v_60^12 = 0
v_60^13 = 0
v_60^14 = 0
v_60^15 = 0
v_60^16 = 0
v_60^17 = 0
v_60^18 = 0
v_60^19 = 0
v_60^20 = 0
v_60^21 = 0
v_60^22 = 0
v_60^23 = 0
v_60^24 = 0
v_60^25 = 0
v_60^26 = 0
v_60^27 = 0
v_60^28 = 0
v_60^29 = 0
v_61^0 = 0
v_61^1 = 0
v_61^2 = 0
v_61^3 = 0
v_61^4 = 0
v_61^5 = 0
v_61^6 = 0
v_61^7 = 0
v_61^8 = 0
v_61^9 = 0
v_61^10 = 0
v_61^11 = 0
v_61^12 = 0
v_61^13 = 0
v_61^14 = 0
v_61^15 = 0
v_61^16 = 0
v_61^17 = 0
v_61^18 = 0
v_61^19 = 0
v_61^20 = 0
v_61^21 = 0
v_61^22 = 0
v_61^23 = 0
v_61^24 = 0
v_61^25 = 0
v_61^26 = 0
v_61^27 = 0
v_61^28 = 0
v_61^29 = 0
v_62^0 = 0
v_62^1 = 0
v_62^2 = 0
v_62^3 = 0
v_62^4 = 0
v_62^5 = 0
v_62^6 = 0
v_62^7 = 0
v_62^8 = 0
v_62^9 = 0
v_62^10 = 0
v_62^11 = 0
v_62^12 = 0
v_62^13 = 0
v_62^14 = 0
v_62^15 = 0
v_62^16 = 0
v_62^17 = 0
v_62^18 = 0
v_62^19 = 0
v_62^20 = 0
v_62^21 = 0
v_62^22 = 0
v_62^23 = 0
v_62^24 = 0
v_62^25 = 0
v_62^26 = 0
v_62^27 = 0
v_62^28 = 0
v_62^29 = 0
v_63^0 = 0
v_63^1 = 0
v_63^2 = 0
v_63^3 = 0
v_63^4 = 0
v_63^5 = 0
v_63^6 = 0
v_63^7 = 0
v_63^8 = 0
v_63^9 = 0
v_63^10 = 0
v_63^11 = 0
v_63^12 = 0
v_63^13 = 0
v_63^14 = 0
v_63^15 = 0
v_63^16 = 0
v_63^17 = 0
v_63^18 = 0
v_63^19 = 0
v_63^20 = 0
v_63^21 = 0
v_63^22 = 0
v_63^23 = 0
v_63^24 = 0
v_63^25 = 0
v_63^26 = 0
v_63^27 = 0
v_63^28 = 0
v_63^29 = 0
v_64^0 = 0
v_64^1 = 0
v_64^2 = 0
v_64^3 = 0
v_64^4 = 0
v_64^5 = 0
v_64^6 = 0
v_64^7 = 0
v_64^8 = 0
v_64^9 = 0
v_64^10 = 0
v_64^11 = 0
v_64^12 = 0
v_64^13 = 0
v_64^14 = 0
v_64^15 = 0
v_64^16 = 0
v_64^17 = 0
v_64^18 = 0
v_64^19 = 0
v_64^20 = 0
v_64^21 = 0
v_64^22 = 0
v_64^23 = 0
v_64^24 = 0
v_64^25 = 0
v_64^26 = 0
v_64^27 = 0
v_64^28 = 0
v_64^29 = -0
v_65^0 = 0
v_65^1 = 0
v_65^2 = 0
v_65^3 = 0
v_65^4 = 0
v_65^5 = 0
v_65^6 = 0
v_65^7 = 0
v_65^8 = 0
v_65^9 = 0
v_65^10 = 0
v_65^11 = 0
v_65^12 = 0
v_65^13 = 0
v_65^14 = 0
v_65^15 = 0
v_65^16 = 0
v_65^17 = 0
v_65^18 = 0
v_65^19 = 0
v_65^20 = 0
v_65^21 = 0
v_65^22 = 0
v_65^23 = 0
v_65^24 = 0
v_65^25 = 0
v_65^26 = 0
v_65^27 = 0
v_65^28 = 0
v_65^29 = 0
v_67^0 = 0
v_67^1 = 0
v_67^2 = 0
v_67^3 = 0
v_67^4 = 0
v_67^5 = 0
v_67^6 = 0
v_67^7 = 0
v_67^8 = 0
v_67^9 = 0
v_67^10 = 0
v_67^11 = 0
v_67^12 = 0
v_67^13 = 0
v_67^14 = 0
v_67^15 = 0
v_67^16 = 0
v_67^17 = 0
v_67^18 = 0
v_67^19 = 0
v_67^20 = 0
v_67^21 = 0
v_67^22 = 0
v_67^23 = 0
v_67^24 = 0
v_67^25 = 0
v_67^26 = 0
v_67^27 = 0
v_67^28 = 0
v_67^29 = 0
v_68^0 = 0
v_68^1 = 0
v_68^2 = 0
v_68^3 = 0
v_68^4 = 0
v_68^5 = 0
v_68^6 = 0
v_68^7 = 0
v_68^8 = 0
v_68^9 = 0
v_68^10 = 0
v_68^11 = 0
v_68^12 = 0
v_68^13 = 0
v_68^14 = 0
v_68^15 = 0
v_68^16 = 0
v_68^17 = 0
v_68^18 = 0
v_68^19 = 0
v_68^20 = 0
v_68^21 = 0
v_68^22 = 0
v_68^23 = 0
v_68^24 = 0
v_68^25 = 0
v_68^26 = 0
v_68^27 = 0
v_68^28 = 0
v_68^29 = 0
v_69^0 = 0
v_69^1 = 0
v_69^2 = 0
v_69^3 = 0
v_69^4 = 0
v_69^5 = 0
v_69^6 = 0
v_69^7 = 0
v_69^8 = 0
v_69^9 = 0
v_69^10 = 0
v_69^11 = 0
v_69^12 = 0
v_69^13 = 0
v_69^14 = 0
v_69^15 = 0
v_69^16 = 0
v_69^17 = 0
v_69^18 = 0
v_69^19 = 0
v_69^20 = 0
v_69^21 = 0
v_69^22 = 0
v_69^23 = 0
v_69^24 = 0
v_69^25 = 0
v_69^26 = 0
v_69^27 = 0
v_69^28 = 0
v_69^29 = 0
v_70^0 = 0
v_70^1 = 0
v_70^2 = 0
v_70^3 = 0
v_70^4 = 0
v_70^5 = 0
v_70^6 = 0
v_70^7 = 0
v_70^8 = 0
v_70^9 = 0
v_70^10 = 0
v_70^11 = 0
v_70^12 = 0
v_70^13 = 0
v_70^14 = 0
v_70^15 = 0
v_70^16 = 0
v_70^17 = 0
v_70^18 = 0
v_70^19 = 0
v_70^20 = 0
v_70^21 = 0
v_70^22 = 0
v_70^23 = 0
v_70^24 = 0
v_70^25 = 0
v_70^26 = 0
v_70^27 = 0
v_70^28 = 0
v_70^29 = 0
v_71^0 = 0
v_71^1 = 0
v_71^2 = 0
v_71^3 = 0
v_71^4 = 0
v_71^5 = 0
v_71^6 = 0
v_71^7 = 0
v_71^8 = 0
v_71^9 = 0
v_71^10 = 0
v_71^11 = 0
v_71^12 = 0
v_71^13 = 0
v_71^14 = 0
v_71^15 = 0
v_71^16 = 0
v_71^17 = 0
v_71^18 = 0
v_71^19 = 0
v_71^20 = 0
v_71^21 = 0
v_71^22 = 0
v_71^23 = 0
v_71^24 = 0
v_71^25 = 0
v_71^26 = 0
v_71^27 = 0
v_71^28 = 0
v_71^29 = 0
v_72^0 = 0
v_72^1 = 0
v_72^2 = 0
v_72^3 = 0
v_72^4 = 0
v_72^5 = 0
v_72^6 = 0
v_72^7 = 0
v_72^8 = 0
v_72^9 = 0
v_72^10 = 0
v_72^11 = 0
v_72^12 = 0
v_72^13 = 0
v_72^14 = 0
v_72^15 = 0
v_72^16 = 0
v_72^17 = 0
v_72^18 = 0
v_72^19 = 0
v_72^20 = 0
v_72^21 = 0
v_72^22 = 0
v_72^23 = 0
v_72^24 = 0
v_72^25 = 0
v_72^26 = 0
v_72^27 = 0
v_72^28 = 0
v_72^29 = 0
v_73^0 = 0
v_73^1 = 0
v_73^2 = 0
v_73^3 = 0
v_73^4 = 0
v_73^5 = 0
v_73^6 = 0
v_73^7 = 0
v_73^8 = 0
v_73^9 = 0
v_73^10 = 0
v_73^11 = 0
v_73^12 = 0
v_73^13 = 0
v_73^14 = 0
v_73^15 = 0
v_73^16 = 0
v_73^17 = 0
v_73^18 = 0
v_73^19 = 0
v_73^20 = 0
v_73^21 = 0
v_73^22 = 0
v_73^23 = 0
v_73^24 = 0
v_73^25 = 0
v_73^26 = 0
v_73^27 = 0
v_73^28 = 0
v_73^29 = 0
v_74^0 = 0
v_74^1 = 0
v_74^2 = 0
v_74^3 = 0
v_74^4 = 0
v_74^5 = 0
v_74^6 = 0
v_74^7 = 0
v_74^8 = 0
v_74^9 = 0
v_74^10 = 0
v_74^11 = 0
v_74^12 = 0
v_74^13 = 0
v_74^14 = 0
v_74^15 = 0
v_74^16 = 0
v_74^17 = 0
v_74^18 = 0
v_74^19 = 0
v_74^20 = 0
v_74^21 = 0
v_74^22 = 0
v_74^23 = 0
v_74^24 = 0
v_74^25 = 0
v_74^26 = 0
v_74^27 = 0
v_74^28 = 0
v_74^29 = 0
v_75^0 = 0
v_75^1 = 0
v_75^2 = 0
v_75^3 = 0
v_75^4 = 0
v_75^5 = 0
v_75^6 = 0
v_75^7 = 0
v_75^8 = 0
v_75^9 = 0
v_75^10 = 0
v_75^11 = 0
v_75^12 = 0
v_75^13 = 0
v_75^14 = 0
v_75^15 = 0
v_75^16 = 0
v_75^17 = 0
v_75^18 = 0
v_75^19 = 0
v_75^20 = 0
v_75^21 = 0
v_75^22 = 0
v_75^23 = 0
v_75^24 = 0
v_75^25 = 0
v_75^26 = 0
v_75^27 = 0
v_75^28 = 0
v_75^29 = 0
v_76^0 = 0
v_76^1 = 0
v_76^2 = 0
v_76^3 = 0
v_76^4 = 0
v_76^5 = 0
v_76^6 = 0
v_76^7 = 0
v_76^8 = 0
v_76^9 = 0
v_76^10 = 0
v_76^11 = 0
v_76^12 = 0
v_76^13 = 0
v_76^14 = 0
v_76^15 = 0
v_76^16 = 0
v_76^17 = 0
v_76^18 = 0
v_76^19 = 0
v_76^20 = 0
v_76^21 = 0
v_76^22 = 0
v_76^23 = 0
v_76^24 = 0
v_76^25 = 0
v_76^26 = 0
v_76^27 = 0
v_76^28 = 0
v_76^29 = 0
v_78^0 = 0
v_78^1 = 0
v_78^2 = 0
v_78^3 = 0
v_78^4 = 0
v_78^5 = 0
v_78^6 = 0
v_78^7 = 0
v_78^8 = 0
v_78^9 = 0
v_78^10 = 0
v_78^11 = 0
v_78^12 = 0
v_78^13 = 0
v_78^14 = 0
v_78^15 = 0
v_78^16 = 0
v_78^17 = 0
v_78^18 = 0
v_78^19 = 0
v_78^20 = 0
v_78^21 = 0
v_78^22 = 0
v_78^23 = 0
v_78^24 = 0
v_78^25 = 0
v_78^26 = 0
v_78^27 = 0
v_78^28 = 0
v_78^29 = 0
v_79^0 = 0
v_79^1 = 0
v_79^2 = 0
v_79^3 = 0
v_79^4 = 0
v_79^5 = 0
v_79^6 = 0
v_79^7 = 0
v_79^8 = 0
v_79^9 = 0
v_79^10 = 0
v_79^11 = 0
v_79^12 = 0
v_79^13 = 0
v_79^14 = 0
v_79^15 = 0
v_79^16 = 0
v_79^17 = 0
v_79^18 = 0
v_79^19 = 0
v_79^20 = 0
v_79^21 = 0
v_79^22 = 0
v_79^23 = 0
v_79^24 = 0
v_79^25 = 0
v_79^26 = 0
v_79^27 = 0
v_79^28 = 0
v_79^29 = 0
v_80^0 = 0
v_80^1 = 0
v_80^2 = 0
v_80^3 = 0
v_80^4 = 0
v_80^5 = 0
v_80^6 = 0
v_80^7 = 0
v_80^8 = 0
v_80^9 = 0
v_80^10 = 0
v_80^11 = 0
v_80^12 = 0
v_80^13 = 0
v_80^14 = 0
v_80^15 = 0
v_80^16 = 0
v_80^17 = 0
v_80^18 = 0
v_80^19 = 0
v_80^20 = 0
v_80^21 = 0
v_80^22 = 0
v_80^23 = 0
v_80^24 = 0
v_80^25 = 0
v_80^26 = 0
v_80^27 = 0
v_80^28 = 0
v_80^29 = 0
v_81^0 = 0
v_81^1 = 0
v_81^2 = 0
v_81^3 = 0
v_81^4 = 0
v_81^5 = 0
v_81^6 = 0
v_81^7 = 0
v_81^8 = 0
v_81^9 = 0
v_81^10 = 0
v_81^11 = 0
v_81^12 = 0
v_81^13 = 0
v_81^14 = 0
v_81^15 = 0
v_81^16 = 0
v_81^17 = 0
v_81^18 = 0
v_81^19 = 0
v_81^20 = 0
v_81^21 = 0
v_81^22 = 0
v_81^23 = 0
v_81^24 = 0
v_81^25 = 0
v_81^26 = 0
v_81^27 = 0
v_81^28 = 0
v_81^29 = 0
v_82^0 = 0
v_82^1 = 0
v_82^2 = 0
v_82^3 = 0
v_82^4 = 0
v_82^5 = 0
v_82^6 = 0
v_82^7 = 0
v_82^8 = 0
v_82^9 = 0
v_82^10 = 0
v_82^11 = 0
v_82^12 = 0
v_82^13 = 0
v_82^14 = 0
v_82^15 = 0
v_82^16 = 0
v_82^17 = 0
v_82^18 = 0
v_82^19 = 0
v_82^20 = 0
v_82^21 = 0
v_82^22 = 0
v_82^23 = 0
v_82^24 = 0
v_82^25 = 0
v_82^26 = 0
v_82^27 = 0
v_82^28 = 0
v_82^29 = 0
v_83^0 = 0
v_83^1 = 0
v_83^2 = 0
v_83^3 = 0
v_83^4 = 0
v_83^5 = 0
v_83^6 = 0
v_83^7 = 0
v_83^8 = 0
v_83^9 = 0
v_83^10 = 0
v_83^11 = 0
v_83^12 = 0
v_83^13 = 0
v_83^14 = 0
v_83^15 = 0
v_83^16 = 0
v_83^17 = 0
v_83^18 = 0
v_83^19 = 0
v_83^20 = 0
v_83^21 = 0
v_83^22 = 0
v_83^23 = 0
v_83^24 = 0
v_83^25 = 0
v_83^26 = 0
v_83^27 = 0
v_83^28 = 0
v_83^29 = 0
v_84^0 = 0
v_84^1 = 0
v_84^2 = 0
v_84^3 = 0
v_84^4 = 0
v_84^5 = 0
v_84^6 = 0
v_84^7 = 0
v_84^8 = 0
v_84^9 = 0
v_84^10 = 0
v_84^11 = 0
v_84^12 = 0
v_84^13 = 0
v_84^14 = 0
v_84^15 = 0
v_84^16 = 0
v_84^17 = 0
v_84^18 = 0
v_84^19 = 0
v_84^20 = 0
v_84^21 = 0
v_84^22 = 0
v_84^23 = 0
v_84^24 = 0
v_84^25 = 0
v_84^26 = 0
v_84^27 = 0
v_84^28 = 0
v_84^29 = 0
v_85^0 = 0
v_85^1 = 0
v_85^2 = 0
v_85^3 = 0
v_85^4 = 0
v_85^5 = 0
v_85^6 = 0
v_85^7 = 0
v_85^8 = 0
v_85^9 = 0
v_85^10 = 0
v_85^11 = 0
v_85^12 = 0
v_85^13 = 0
v_85^14 = 0
v_85^15 = 0
v_85^16 = 0
v_85^17 = 0
v_85^18 = 0
v_85^19 = 0
v_85^20 = 0
v_85^21 = 0
v_85^22 = 0
v_85^23 = 0
v_85^24 = 0
v_85^25 = 0
v_85^26 = 0
v_85^27 = 0
v_85^28 = 0
v_85^29 = 0
v_86^0 = 0
v_86^1 = 0
v_86^2 = 0
v_86^3 = 0
v_86^4 = 0
v_86^5 = 0
v_86^6 = 0
v_86^7 = 0
v_86^8 = 0
v_86^9 = 0
v_86^10 = 0
v_86^11 = 0
v_86^12 = 0
v_86^13 = 0
v_86^14 = 0
v_86^15 = 0
v_86^16 = 0
v_86^17 = 0
v_86^18 = 0
v_86^19 = 0
v_86^20 = 0
v_86^21 = 0
v_86^22 = 0
v_86^23 = 0
v_86^24 = 0
v_86^25 = 0
v_86^26 = 0
v_86^27 = 0
v_86^28 = 0
v_86^29 = 0
v_87^0 = 0
v_87^1 = 0
v_87^2 = 0
v_87^3 = 0
v_87^4 = 0
v_87^5 = 0
v_87^6 = 0
v_87^7 = 0
v_87^8 = 0
v_87^9 = 0
v_87^10 = 0
v_87^11 = 0
v_87^12 = 0
v_87^13 = 0
v_87^14 = 0
v_87^15 = 0
v_87^16 = 0
v_87^17 = 0
v_87^18 = 0
v_87^19 = 0
v_87^20 = 0
v_87^21 = 0
v_87^22 = 0
v_87^23 = 0
v_87^24 = 0
v_87^25 = 0
v_87^26 = 0
v_87^27 = 0
v_87^28 = 0
v_87^29 = 0
v_89^0 = 0
v_89^1 = 0
v_89^2 = 0
v_89^3 = 0
v_89^4 = 0
v_89^5 = 0
v_89^6 = 0
v_89^7 = 0
v_89^8 = 0
v_89^9 = 0
v_89^10 = 0
v_89^11 = 0
v_89^12 = 0
v_89^13 = 0
v_89^14 = 0
v_89^15 = 0
v_89^16 = 0
v_89^17 = 0
v_89^18 = 0
v_89^19 = 0
v_89^20 = 0
v_89^21 = 0
v_89^22 = 0
v_89^23 = 0
v_89^24 = 0
v_89^25 = 0
v_89^26 = 0
v_89^27 = 0
v_89^28 = 0
v_89^29 = 0
v_90^0 = 0
v_90^1 = 0
v_90^2 = 0
v_90^3 = 0
v_90^4 = 0
v_90^5 = 0
v_90^6 = 0
v_90^7 = 0
v_90^8 = 0
v_90^9 = 0
v_90^10 = 0
v_90^11 = 0
v_90^12 = 0
v_90^13 = 0
v_90^14 = 0
v_90^15 = 0
v_90^16 = 0
v_90^17 = 0
v_90^18 = 0
v_90^19 = 0
v_90^20 = 0
v_90^21 = 0
v_90^22 = 0
v_90^23 = 0
v_90^24 = 0
v_90^25 = 0
v_90^26 = 0
v_90^27 = 0
v_90^28 = 0
v_90^29 = 0
v_91^0 = 0
v_91^1 = 0
v_91^2 = 0
v_91^3 = 0
v_91^4 = 0
v_91^5 = 0
v_91^6 = 0
v_91^7 = 0
v_91^8 = 0
v_91^9 = 0
v_91^10 = 0
v_91^11 = 0
v_91^12 = 0
v_91^13 = 0
v_91^14 = 0
v_91^15 = 0
v_91^16 = 0
v_91^17 = 0
v_91^18 = 0
v_91^19 = 0
v_91^20 = 0
v_91^21 = 0
v_91^22 = 0
v_91^23 = 0
v_91^24 = 0
v_91^25 = 0
v_91^26 = 0
v_91^27 = 0
v_91^28 = 0
v_91^29 = 0
v_92^0 = 0
v_92^1 = 0
v_92^2 = 0
v_92^3 = 0
v_92^4 = 0
v_92^5 = 0
v_92^6 = 0
v_92^7 = 0
v_92^8 = 0
v_92^9 = 0
v_92^10 = 0
v_92^11 = 0
v_92^12 = 0
v_92^13 = 0
v_92^14 = 0
v_92^15 = 0
v_92^16 = 0
v_92^17 = 0
v_92^18 = 0
v_92^19 = 0
v_92^20 = 0
v_92^21 = 0
v_92^22 = 0
v_92^23 = 0
v_92^24 = 0
v_92^25 = 0
v_92^26 = 0
v_92^27 = 0
v_92^28 = 0
v_92^29 = 0
v_93^0 = 0
v_93^1 = 0
v_93^2 = 0
v_93^3 = 0
v_93^4 = 0
v_93^5 = 0
v_93^6 = 0
v_93^7 = 0
v_93^8 = 0
v_93^9 = 0
v_93^10 = 0
v_93^11 = 0
v_93^12 = 0
v_93^13 = 0
v_93^14 = 0
v_93^15 = 0
v_93^16 = 0
v_93^17 = 0
v_93^18 = 0
v_93^19 = 0
v_93^20 = 0
v_93^21 = 0
v_93^22 = 0
v_93^23 = 0
v_93^24 = 0
v_93^25 = 0
v_93^26 = 0
v_93^27 = 0
v_93^28 = 0
v_93^29 = 0
v_94^0 = 0
v_94^1 = 0
v_94^2 = 0
v_94^3 = 0
v_94^4 = 0
v_94^5 = 0
v_94^6 = 0
v_94^7 = 0
v_94^8 = 0
v_94^9 = 0
v_94^10 = 0
v_94^11 = 0
v_94^12 = 0
v_94^13 = 0
v_94^14 = 0
v_94^15 = 0
v_94^16 = 0
v_94^17 = 0
v_94^18 = 0
v_94^19 = 0
v_94^20 = 0
v_94^21 = 0
v_94^22 = 0
v_94^23 = 0
v_94^24 = 0
v_94^25 = 0
v_94^26 = 0
v_94^27 = 0
v_94^28 = 0
v_94^29 = 0
v_95^0 = 0
v_95^1 = 0
v_95^2 = 0
v_95^3 = 0
v_95^4 = 0
v_95^5 = 0
v_95^6 = 0
v_95^7 = 0
v_95^8 = 0
v_95^9 = 0
v_95^10 = 0
v_95^11 = 0
v_95^12 = 0
v_95^13 = 0
v_95^14 = 0
v_95^15 = 0
v_95^16 = 0
v_95^17 = 0
v_95^18 = 0
v_95^19 = 0
v_95^20 = 0
v_95^21 = 0
v_95^22 = 0
v_95^23 = 0
v_95^24 = 0
v_95^25 = 0
v_95^26 = 0
v_95^27 = 0
v_95^28 = 0
v_95^29 = 0
v_96^0 = 0
v_96^1 = 0
v_96^2 = 0
v_96^3 = 0
v_96^4 = 0
v_96^5 = 0
v_96^6 = 0
v_96^7 = 0
v_96^8 = 0
v_96^9 = 0
v_96^10 = 0
v_96^11 = 0
v_96^12 = 0
v_96^13 = 0
v_96^14 = 0
v_96^15 = 0
v_96^16 = 0
v_96^17 = 0
v_96^18 = 0
v_96^19 = 0
v_96^20 = 0
v_96^21 = 0
v_96^22 = 0
v_96^23 = 0
v_96^24 = 0
v_96^25 = 0
v_96^26 = 0
v_96^27 = 0
v_96^28 = 0
v_96^29 = 0
v_97^0 = 0
v_97^1 = 0
v_97^2 = 0
v_97^3 = 0
v_97^4 = 0
v_97^5 = 0
v_97^6 = 0
v_97^7 = 0
v_97^8 = 0
v_97^9 = 0
v_97^10 = 0
v_97^11 = 0
v_97^12 = 0
v_97^13 = 0
v_97^14 = 0
v_97^15 = 0
v_97^16 = 0
v_97^17 = 0
v_97^18 = 0
v_97^19 = 0
v_97^20 = 0
v_97^21 = 0
v_97^22 = 0
v_97^23 = 0
v_97^24 = 0
v_97^25 = 0
v_97^26 = 0
v_97^27 = 0
v_97^28 = 0
v_97^29 = 0
v_98^0 = 0
v_98^1 = 0
v_98^2 = 0
v_98^3 = 0
v_98^4 = 0
v_98^5 = 0
v_98^6 = 0
v_98^7 = 0
v_98^8 = 0
v_98^9 = 0
v_98^10 = 0
v_98^11 = 0
v_98^12 = 0
v_98^13 = 0
v_98^14 = 0
v_98^15 = 0
v_98^16 = 0
v_98^17 = 0
v_98^18 = 0
v_98^19 = 0
v_98^20 = 0
v_98^21 = 0
v_98^22 = 0
v_98^23 = 0
v_98^24 = 0
v_98^25 = 0
v_98^26 = 0
v_98^27 = 0
v_98^28 = 0
v_98^29 = 0

